c1_10_1

VEHICLE
NUMBER   CAPACITY
250     200

CUSTOMER
CUST NO. XCOORD.  YCOORD.  DEMAND  READY TIME DUE DATE  SERVICE TIME

0   250    250     0     0    1824     0
339 394 333 20 492 567 90
755 400 286 10 217 276 90
735 388 325 10 971 1026 90
673 390 325 30 883 929 90
307 395 295 20 677 736 90
457 395 332 10 593 648 90
687 391 293 20 768 834 90
1 387 297 10 200 270 90
166 393 301 30 482 545 90
640 389 334 20 316 373 90
854 388 331 20 160 230 90
748 395 331 20 690 734 90
325 398 325 30 774 843 90
515 399 301 30 584 634 90
783 388 334 20 227 280 90
617 390 294 20 853 931 90
70 389 300 10 293 364 90
599 400 288 30 154 232 90
861 391 334 20 402 470 90
496 390 301 10 391 450 90
231 385 295 20 142 182 90
